430 d 2 4 8 18 22 33 38 45 46 48 49 52 54 55 57 58 60 61 63 64 66 67 70 72 73 75 76 78 79 82 84 85 88 90 91 93 94 96 97 100 102 103 105 106 108 109 111 112 114 115 120 121 123 124 125 126 130 131 135 136 138 139 140 141 145 146 148 150 151 153 154 155 158 159 161 162 163 166 167 170 171 173 174 176 177 179 180 182 183 185 186 188 189 190 191 192 193 194 195 196 197 198 199 200 201 202 203 204 205 206 207 208 209 210 211 212 213 214 215 216 217 218 219 220 221 222 223 224 225 226 227 228 229 230 231 232 233 234 235 236 237 238 239 240 241 242 243 244 245 246 247 248 249 250 251 252 253 254 255 256 257 258 259 260 261 262 263 264 265 266 267 268 269 270 271 272 273 274 275 276 277 278 279 280 281 282 283 284 285 286 287 288 289 290 291 292 293 294 295 296 297 298 299 300 301 302 303 304 305 306 307 308 309 310 311 312 313 314 315 316 317 318 319 320 321 322 323 324 325 326 327 328 329 330 331 332 333 334 335 336 337 338 339 340 341 342 343 344 345 346 347 348 349 350 351 352 353 354 355 356 357 358 359 360 361 362 363 364 365 366 367 368 369 370 371 372 373 374 375 376 377 378 379 380 381 382 383 384 385 386 387 388 389 390 391 392 393 394 395 396 397 398 399 400 401 402 403 404 405 406 407 408 409 410 411 412 413 414 415 416 417 418 419 420 421 422 423 424 425 426 427 428 429 430 0
431 37 -42 0 168 83 118 37 143 26 98 99 21 51 175 5 0
431 d 83 118 143 98 99 51 175 5 0
432 -42 -43 0 431 1 101 134 157 178 34 116 23 117 69 104 6 50 39 29 89 142 12 13 160 65 28 40 74 3 80 59 24 17 164 11 137 95 35 30 110 19 44 9 181 0
432 d 1 157 178 34 23 117 69 104 6 39 29 89 142 12 13 160 65 28 40 74 80 59 24 17 164 137 95 30 110 44 181 0
433 -43 0 432 113 165 144 184 32 127 21 50 128 129 16 47 81 116 43 62 27 152 37 11 77 101 10 3 56 31 168 26 147 15 86 42 71 0
433 d 432 144 184 32 21 50 128 129 16 81 116 43 37 11 101 3 168 147 86 71 0
477 0 433 119 149 169 187 31 20 56 132 133 134 87 122 15 36 53 107 42 7 68 172 26 25 156 92 10 41 431 77 113 165 14 35 152 127 27 19 62 47 9 0
